\ Model ReLU2_Adv3
\ LP format - for model browsing. Use MPS format to capture full model detail.
Minimize
  0.4 C5 + 0.6 C6 - 0.2 C7 + 0.2 C8 + 0 C9 + 0 C10 + 0 C11 - 0.2 C12
   + 0.5 C13 + 0 C14 + 0.1 Constant + [ - 0.6 C5 * C12 + 0.4 C5 * C13
   + 0.2 C6 * C12 + 0.3 C6 * C13 + C7 * C12 + 0.4 C7 * C13 - 0.6 C8 * C12
   - C8 * C13 ] / 2 
Subject To
 R0: C0 <= 10.6
 R1: C0 >= -9.4
 R2: C1 <= 9.7
 R3: C1 >= -10.3
 R4: C2 <= 10.4
 R5: C2 >= -9.6
 R6: 0.3 C0 - 0.15 C1 + 0.3 C2 - 15 C15 <= 0.2
 R7: 0.3 C0 - 0.15 C1 + 0.3 C2 - 15 C15 >= -14.8
 R8: - 0.2 C0 - 0.5 C1 + 0.5 C2 - 15 C16 <= -0.1
 R9: - 0.2 C0 - 0.5 C1 + 0.5 C2 - 15 C16 >= -15.1
 R10: - 0.3 C3 + 0.3 C4 - 15 C17 <= -0.3
 R11: - 0.3 C3 + 0.3 C4 - 15 C17 >= -15.3
 R12: 0.1 C3 - 0.2 C4 - 15 C18 <= 0.2
 R13: 0.1 C3 - 0.2 C4 - 15 C18 >= -14.8
 R14: 0.15 C3 - 0.15 C4 - 15 C19 <= -0.3
 R15: 0.15 C3 - 0.15 C4 - 15 C19 >= -15.3
 R16: 0.8 C3 + 0.6 C4 - 15 C20 <= 0.1
 R17: 0.8 C3 + 0.6 C4 - 15 C20 >= -14.9
 R18: C12 + C13 = 1
 qc0: C3 + 0.2 C15 + [ - 0.3 C0 * C15 + 0.15 C1 * C15 - 0.3 C2 * C15 ] = 0
 qc1: C4 - 0.1 C16 + [ 0.2 C0 * C16 + 0.5 C1 * C16 - 0.5 C2 * C16 ] = 0
 qc2: C5 - 0.3 C17 + [ 0.3 C3 * C17 - 0.3 C4 * C17 ] = 0
 qc3: C6 + 0.2 C18 + [ - 0.1 C3 * C18 + 0.2 C4 * C18 ] = 0
 qc4: C7 - 0.3 C19 + [ - 0.15 C3 * C19 + 0.15 C4 * C19 ] = 0
 qc5: C8 + 0.1 C20 + [ - 0.8 C3 * C20 - 0.6 C4 * C20 ] = 0
 qc6: 0.75 C12 + [ 0.52 C5 * C12 + 0.065 C6 * C12 - 0.28 C7 * C12
   - 0.25 C8 * C12 ] >= 0
 qc7: 0.09 C12 + [ - 0.14 C5 * C12 - 0.76 C6 * C12 - 0.28 C7 * C12
   + 0.08 C8 * C12 ] >= 0
 qc8: - 0.72 C13 + [ - 0.53 C5 * C13 - 0.04 C6 * C13 + 0.35 C7 * C13
   + 0.17 C8 * C13 ] >= 0
 qc9: - 0.61 C13 + [ - 0.64 C5 * C13 - 0.81 C6 * C13 + 0.02 C7 * C13
   + 0.28 C8 * C13 ] >= 0
Bounds
 C0 >= -15
 C1 >= -15
 C2 >= -15
 Constant = 1
Binaries
 C12 C13 C14 C15 C16 C17 C18 C19 C20
End
